v1 = 5;
v2 = 5;
vertexWeights = [-45, -45, -45, -45, -45, -45, -90, -90, -90, -90, -90, -45, -90, -90, -90, -37.02026472082554, -90, -45, -90, -90, -9.192388155425117, -90, -90, -45, -90, -90, -90, -90, -90, -45, -90, -90, -25.079872407968907, -90, -90];
edgeWeights = [| 0, -7.5, 0, 0, 0, 0, 0, -7.5, 0, 0, 0, 0, 0, -7.5, 0, 0, 0, 0, 0, -7.5, 0, 0, 0, 0, 0, -7.5, 0, 0, 0, 0, 0, -7.5, 0, 0, 0
| -7.5, 0, -7.5, 0, 0, 0, -7.5, 0, -7.5, 0, 0, 0, -7.5, 0, -7.5, 0, 0, 0, -7.5, 0, -7.5, 0, 0, 0, -7.5, 0, -7.5, 0, 0, 0, -7.5, 0, -7.5, 0, 0
| 0, -7.5, 0, 0, -7.5, 0, 0, -7.5, 0, 0, -7.5, 0, 0, -7.5, 0, 0, -7.5, 0, 0, -7.5, 0, 0, -7.5, 0, 0, -7.5, 0, 0, -7.5, 0, 0, -7.5, 0, 0, -7.5
| 0, 0, 0, 0, 0, 0, 0, 0, 0, 0, 0, 0, 0, 0, 0, 0, 0, 0, 0, 0, 0, 0, 0, 0, 0, 0, 0, 0, 0, 0, 0, 0, 0, 0, 0
| 0, 0, -7.5, 0, 0, 0, 0, 0, -7.5, 0, 0, 0, 0, 0, -7.5, 0, 0, 0, 0, 0, -7.5, 0, 0, 0, 0, 0, -7.5, 0, 0, 0, 0, 0, -7.5, 0, 0
| 0, 0, 0, 0, 0, 0, 0, 0, 0, 0, 0, 0, 0, 0, 0, 0, 0, 0, 0, 0, 0, 0, 0, 0, 0, 0, 0, 0, 0, -15.0, -15.0, -15.0, -15.0, -15.0, -15.0
| 0, -7.5, -0.0, -0.0, -0.0, 0, 0, 0, 0, 0, 0, -0.0, 0, -7.5, 0, 0, 0, -0.0, 0, -7.5, 0, 0, 0, -0.0, 0, -7.5, 0, 0, 0, -15.0, 0, -7.5, -0.0, -0.0, -15.0
| -7.5, 0, -7.5, -0.0, -0.0, 0, 0, 0, 0, 0, 0, -0.0, -7.5, 0, -7.5, 0, 0, -0.0, -7.5, 0, -7.5, 0, 0, -0.0, -7.5, 0, -7.5, 0, 0, -15.0, -7.5, 0, -7.5, -0.0, -15.0
| -0.0, -7.5, 0, -0.0, -7.5, 0, 0, 0, 0, 0, 0, -0.0, 0, -7.5, 0, 0, -7.5, -0.0, 0, -7.5, 0, 0, -7.5, -0.0, 0, -7.5, 0, 0, -7.5, -15.0, -0.0, -7.5, 0, -0.0, -7.5
| -0.0, -0.0, -0.0, 0, -0.0, 0, 0, 0, 0, 0, 0, -0.0, 0, 0, 0, 0, 0, -0.0, 0, 0, 0, 0, 0, -0.0, 0, 0, 0, 0, 0, -15.0, -0.0, -0.0, -0.0, 0, -15.0
| -0.0, -0.0, -7.5, -0.0, 0, 0, 0, 0, 0, 0, 0, -0.0, 0, 0, -7.5, 0, 0, -0.0, 0, 0, -7.5, 0, 0, -0.0, 0, 0, -7.5, 0, 0, -15.0, -0.0, -0.0, -7.5, -0.0, 0
| 0, 0, 0, 0, 0, 0, 0, 0, 0, 0, 0, 0, 0, 0, 0, 0, 0, 0, 0, 0, 0, 0, 0, 0, 0, 0, 0, 0, 0, 0, 0, 0, 0, 0, 0
| 0, -7.5, -0.0, -0.0, -0.0, -0.0, 0, -7.5, 0, 0, 0, 0, 0, 0, 0, 0, 0, -0.0, 0, -7.5, 0, 0, 0, -0.0, 0, -7.5, 0, 0, 0, -0.0, 0, -7.5, 0, 0, 0
| -7.5, 0, -7.5, -0.0, -0.0, -0.0, -7.5, 0, -7.5, 0, 0, 0, 0, 0, 0, 0, 0, -0.0, -7.5, 0, -7.5, 0, 0, -0.0, -7.5, 0, -7.5, 0, 0, -0.0, -7.5, 0, -7.5, 0, 0
| -0.0, -7.5, 0, -0.0, -7.5, -0.0, 0, -7.5, 0, 0, -7.5, 0, 0, 0, 0, 0, 0, -0.0, 0, -7.5, 0, 0, -7.5, -0.0, 0, -7.5, 0, 0, -7.5, -0.0, 0, -7.5, 0, 0, -7.5
| -0.0, -0.0, -0.0, 0, -0.0, -0.0, 0, 0, 0, 0, 0, 0, 0, 0, 0, 0, 0, -0.0, 0, 0, 0, 0, 0, -0.0, 0, 0, 0, 0, 0, -0.0, 0, 0, 0, 0, 0
| -0.0, -0.0, -7.5, -0.0, 0, -0.0, 0, 0, -7.5, 0, 0, 0, 0, 0, 0, 0, 0, -0.0, 0, 0, -7.5, 0, 0, -0.0, 0, 0, -7.5, 0, 0, -0.0, 0, 0, -7.5, 0, 0
| 0, 0, 0, 0, 0, 0, 0, 0, 0, 0, 0, 0, 0, 0, 0, 0, 0, 0, 0, 0, 0, 0, 0, -15.0, -15.0, -15.0, -15.0, -15.0, -15.0, 0, 0, 0, 0, 0, 0
| 0, -7.5, -0.0, -0.0, -0.0, -0.0, 0, -7.5, 0, 0, 0, -0.0, 0, -7.5, 0, 0, 0, 0, 0, 0, 0, 0, 0, -15.0, 0, -7.5, -0.0, -15.0, -0.0, -0.0, 0, -7.5, 0, 0, 0
| -7.5, 0, -7.5, -0.0, -0.0, -0.0, -7.5, 0, -7.5, 0, 0, -0.0, -7.5, 0, -7.5, 0, 0, 0, 0, 0, 0, 0, 0, -15.0, -7.5, 0, -7.5, -15.0, -0.0, -0.0, -7.5, 0, -7.5, 0, 0
| -0.0, -7.5, 0, -0.0, -7.5, -0.0, 0, -7.5, 0, 0, -7.5, -0.0, 0, -7.5, 0, 0, -7.5, 0, 0, 0, 0, 0, 0, -15.0, -0.0, -7.5, 0, -15.0, -7.5, -0.0, 0, -7.5, 0, 0, -7.5
| -0.0, -0.0, -0.0, 0, -0.0, -0.0, 0, 0, 0, 0, 0, -0.0, 0, 0, 0, 0, 0, 0, 0, 0, 0, 0, 0, -15.0, -0.0, -0.0, -0.0, 0, -0.0, -0.0, 0, 0, 0, 0, 0
| -0.0, -0.0, -7.5, -0.0, 0, -0.0, 0, 0, -7.5, 0, 0, -0.0, 0, 0, -7.5, 0, 0, 0, 0, 0, 0, 0, 0, -15.0, -0.0, -0.0, -7.5, -15.0, 0, -0.0, 0, 0, -7.5, 0, 0
| 0, 0, 0, 0, 0, 0, 0, 0, 0, 0, 0, 0, 0, 0, 0, 0, 0, -15.0, -15.0, -15.0, -15.0, -15.0, -15.0, 0, 0, 0, 0, 0, 0, 0, 0, 0, 0, 0, 0
| 0, -7.5, -0.0, -0.0, -0.0, -0.0, 0, -7.5, 0, 0, 0, -0.0, 0, -7.5, 0, 0, 0, -15.0, 0, -7.5, -15.0, -0.0, -0.0, 0, 0, 0, 0, 0, 0, -0.0, 0, -7.5, 0, 0, 0
| -7.5, 0, -7.5, -0.0, -0.0, -0.0, -7.5, 0, -7.5, 0, 0, -0.0, -7.5, 0, -7.5, 0, 0, -15.0, -7.5, 0, -7.5, -0.0, -0.0, 0, 0, 0, 0, 0, 0, -0.0, -7.5, 0, -7.5, 0, 0
| -0.0, -7.5, 0, -0.0, -7.5, -0.0, 0, -7.5, 0, 0, -7.5, -0.0, 0, -7.5, 0, 0, -7.5, -15.0, -0.0, -7.5, 0, -0.0, -7.5, 0, 0, 0, 0, 0, 0, -0.0, 0, -7.5, 0, 0, -7.5
| -0.0, -0.0, -0.0, 0, -0.0, -0.0, 0, 0, 0, 0, 0, -0.0, 0, 0, 0, 0, 0, -15.0, -0.0, -0.0, -15.0, 0, -0.0, 0, 0, 0, 0, 0, 0, -0.0, 0, 0, 0, 0, 0
| -0.0, -0.0, -7.5, -0.0, 0, -0.0, 0, 0, -7.5, 0, 0, -0.0, 0, 0, -7.5, 0, 0, -15.0, -0.0, -0.0, -7.5, -0.0, 0, 0, 0, 0, 0, 0, 0, -0.0, 0, 0, -7.5, 0, 0
| 0, 0, 0, 0, 0, -15.0, -15.0, -15.0, -15.0, -15.0, -15.0, 0, 0, 0, 0, 0, 0, 0, 0, 0, 0, 0, 0, 0, 0, 0, 0, 0, 0, 0, 0, 0, 0, 0, 0
| 0, -7.5, -0.0, -0.0, -0.0, -15.0, 0, -7.5, -0.0, -0.0, -0.0, -0.0, 0, -7.5, 0, 0, 0, -0.0, 0, -7.5, 0, 0, 0, -0.0, 0, -7.5, 0, 0, 0, 0, 0, 0, 0, 0, 0
| -7.5, 0, -7.5, -0.0, -0.0, -15.0, -7.5, 0, -7.5, -0.0, -0.0, -0.0, -7.5, 0, -7.5, 0, 0, -0.0, -7.5, 0, -7.5, 0, 0, -0.0, -7.5, 0, -7.5, 0, 0, 0, 0, 0, 0, 0, 0
| -0.0, -7.5, 0, -0.0, -7.5, -15.0, -15.0, -7.5, 0, -0.0, -7.5, -0.0, 0, -7.5, 0, 0, -7.5, -0.0, 0, -7.5, 0, 0, -7.5, -0.0, 0, -7.5, 0, 0, -7.5, 0, 0, 0, 0, 0, 0
| -0.0, -0.0, -0.0, 0, -0.0, -15.0, -15.0, -0.0, -0.0, 0, -0.0, -0.0, 0, 0, 0, 0, 0, -0.0, 0, 0, 0, 0, 0, -0.0, 0, 0, 0, 0, 0, 0, 0, 0, 0, 0, 0
| -0.0, -0.0, -7.5, -0.0, 0, -15.0, -15.0, -0.0, -7.5, -0.0, 0, -0.0, 0, 0, -7.5, 0, 0, -0.0, 0, 0, -7.5, 0, 0, -0.0, 0, 0, -7.5, 0, 0, 0, 0, 0, 0, 0, 0 |];
adjacent = [| 0, 1, 1, 1, 1, 1, 0, 1, 1, 1, 1, 1, 0, 1, 1, 1, 1, 1, 0, 1, 1, 1, 1, 1, 0, 1, 1, 1, 1, 1, 0, 1, 1, 1, 1
| 1, 0, 1, 1, 1, 1, 1, 0, 1, 1, 1, 1, 1, 0, 1, 1, 1, 1, 1, 0, 1, 1, 1, 1, 1, 0, 1, 1, 1, 1, 1, 0, 1, 1, 1
| 1, 1, 0, 1, 1, 1, 1, 1, 0, 1, 1, 1, 1, 1, 0, 1, 1, 1, 1, 1, 0, 1, 1, 1, 1, 1, 0, 1, 1, 1, 1, 1, 0, 1, 1
| 1, 1, 1, 0, 1, 1, 1, 1, 1, 0, 1, 1, 1, 1, 1, 0, 1, 1, 1, 1, 1, 0, 1, 1, 1, 1, 1, 0, 1, 1, 1, 1, 1, 0, 1
| 1, 1, 1, 1, 0, 1, 1, 1, 1, 1, 0, 1, 1, 1, 1, 1, 0, 1, 1, 1, 1, 1, 0, 1, 1, 1, 1, 1, 0, 1, 1, 1, 1, 1, 0
| 1, 1, 1, 1, 1, 0, 0, 0, 0, 0, 0, 1, 1, 1, 1, 1, 1, 1, 1, 1, 1, 1, 1, 1, 1, 1, 1, 1, 1, 1, 1, 1, 1, 1, 1
| 0, 1, 1, 1, 1, 0, 0, 0, 0, 0, 0, 1, 0, 1, 1, 1, 1, 1, 0, 1, 1, 1, 1, 1, 0, 1, 1, 1, 1, 1, 0, 1, 1, 1, 1
| 1, 0, 1, 1, 1, 0, 0, 0, 0, 0, 0, 1, 1, 0, 1, 1, 1, 1, 1, 0, 1, 1, 1, 1, 1, 0, 1, 1, 1, 1, 1, 0, 1, 1, 1
| 1, 1, 0, 1, 1, 0, 0, 0, 0, 0, 0, 1, 1, 1, 0, 1, 1, 1, 1, 1, 0, 1, 1, 1, 1, 1, 0, 1, 1, 1, 1, 1, 0, 1, 1
| 1, 1, 1, 0, 1, 0, 0, 0, 0, 0, 0, 1, 1, 1, 1, 0, 1, 1, 1, 1, 1, 0, 1, 1, 1, 1, 1, 0, 1, 1, 1, 1, 1, 0, 1
| 1, 1, 1, 1, 0, 0, 0, 0, 0, 0, 0, 1, 1, 1, 1, 1, 0, 1, 1, 1, 1, 1, 0, 1, 1, 1, 1, 1, 0, 1, 1, 1, 1, 1, 0
| 1, 1, 1, 1, 1, 1, 1, 1, 1, 1, 1, 0, 0, 0, 0, 0, 0, 1, 1, 1, 1, 1, 1, 1, 1, 1, 1, 1, 1, 1, 1, 1, 1, 1, 1
| 0, 1, 1, 1, 1, 1, 0, 1, 1, 1, 1, 0, 0, 0, 0, 0, 0, 1, 0, 1, 1, 1, 1, 1, 0, 1, 1, 1, 1, 1, 0, 1, 1, 1, 1
| 1, 0, 1, 1, 1, 1, 1, 0, 1, 1, 1, 0, 0, 0, 0, 0, 0, 1, 1, 0, 1, 1, 1, 1, 1, 0, 1, 1, 1, 1, 1, 0, 1, 1, 1
| 1, 1, 0, 1, 1, 1, 1, 1, 0, 1, 1, 0, 0, 0, 0, 0, 0, 1, 1, 1, 0, 1, 1, 1, 1, 1, 0, 1, 1, 1, 1, 1, 0, 1, 1
| 1, 1, 1, 0, 1, 1, 1, 1, 1, 0, 1, 0, 0, 0, 0, 0, 0, 1, 1, 1, 1, 0, 1, 1, 1, 1, 1, 0, 1, 1, 1, 1, 1, 0, 1
| 1, 1, 1, 1, 0, 1, 1, 1, 1, 1, 0, 0, 0, 0, 0, 0, 0, 1, 1, 1, 1, 1, 0, 1, 1, 1, 1, 1, 0, 1, 1, 1, 1, 1, 0
| 1, 1, 1, 1, 1, 1, 1, 1, 1, 1, 1, 1, 1, 1, 1, 1, 1, 0, 0, 0, 0, 0, 0, 1, 1, 1, 1, 1, 1, 1, 1, 1, 1, 1, 1
| 0, 1, 1, 1, 1, 1, 0, 1, 1, 1, 1, 1, 0, 1, 1, 1, 1, 0, 0, 0, 0, 0, 0, 1, 0, 1, 1, 1, 1, 1, 0, 1, 1, 1, 1
| 1, 0, 1, 1, 1, 1, 1, 0, 1, 1, 1, 1, 1, 0, 1, 1, 1, 0, 0, 0, 0, 0, 0, 1, 1, 0, 1, 1, 1, 1, 1, 0, 1, 1, 1
| 1, 1, 0, 1, 1, 1, 1, 1, 0, 1, 1, 1, 1, 1, 0, 1, 1, 0, 0, 0, 0, 0, 0, 1, 1, 1, 0, 1, 1, 1, 1, 1, 0, 1, 1
| 1, 1, 1, 0, 1, 1, 1, 1, 1, 0, 1, 1, 1, 1, 1, 0, 1, 0, 0, 0, 0, 0, 0, 1, 1, 1, 1, 0, 1, 1, 1, 1, 1, 0, 1
| 1, 1, 1, 1, 0, 1, 1, 1, 1, 1, 0, 1, 1, 1, 1, 1, 0, 0, 0, 0, 0, 0, 0, 1, 1, 1, 1, 1, 0, 1, 1, 1, 1, 1, 0
| 1, 1, 1, 1, 1, 1, 1, 1, 1, 1, 1, 1, 1, 1, 1, 1, 1, 1, 1, 1, 1, 1, 1, 0, 0, 0, 0, 0, 0, 1, 1, 1, 1, 1, 1
| 0, 1, 1, 1, 1, 1, 0, 1, 1, 1, 1, 1, 0, 1, 1, 1, 1, 1, 0, 1, 1, 1, 1, 0, 0, 0, 0, 0, 0, 1, 0, 1, 1, 1, 1
| 1, 0, 1, 1, 1, 1, 1, 0, 1, 1, 1, 1, 1, 0, 1, 1, 1, 1, 1, 0, 1, 1, 1, 0, 0, 0, 0, 0, 0, 1, 1, 0, 1, 1, 1
| 1, 1, 0, 1, 1, 1, 1, 1, 0, 1, 1, 1, 1, 1, 0, 1, 1, 1, 1, 1, 0, 1, 1, 0, 0, 0, 0, 0, 0, 1, 1, 1, 0, 1, 1
| 1, 1, 1, 0, 1, 1, 1, 1, 1, 0, 1, 1, 1, 1, 1, 0, 1, 1, 1, 1, 1, 0, 1, 0, 0, 0, 0, 0, 0, 1, 1, 1, 1, 0, 1
| 1, 1, 1, 1, 0, 1, 1, 1, 1, 1, 0, 1, 1, 1, 1, 1, 0, 1, 1, 1, 1, 1, 0, 0, 0, 0, 0, 0, 0, 1, 1, 1, 1, 1, 0
| 1, 1, 1, 1, 1, 1, 1, 1, 1, 1, 1, 1, 1, 1, 1, 1, 1, 1, 1, 1, 1, 1, 1, 1, 1, 1, 1, 1, 1, 0, 0, 0, 0, 0, 0
| 0, 1, 1, 1, 1, 1, 0, 1, 1, 1, 1, 1, 0, 1, 1, 1, 1, 1, 0, 1, 1, 1, 1, 1, 0, 1, 1, 1, 1, 0, 0, 0, 0, 0, 0
| 1, 0, 1, 1, 1, 1, 1, 0, 1, 1, 1, 1, 1, 0, 1, 1, 1, 1, 1, 0, 1, 1, 1, 1, 1, 0, 1, 1, 1, 0, 0, 0, 0, 0, 0
| 1, 1, 0, 1, 1, 1, 1, 1, 0, 1, 1, 1, 1, 1, 0, 1, 1, 1, 1, 1, 0, 1, 1, 1, 1, 1, 0, 1, 1, 0, 0, 0, 0, 0, 0
| 1, 1, 1, 0, 1, 1, 1, 1, 1, 0, 1, 1, 1, 1, 1, 0, 1, 1, 1, 1, 1, 0, 1, 1, 1, 1, 1, 0, 1, 0, 0, 0, 0, 0, 0
| 1, 1, 1, 1, 0, 1, 1, 1, 1, 1, 0, 1, 1, 1, 1, 1, 0, 1, 1, 1, 1, 1, 0, 1, 1, 1, 1, 1, 0, 0, 0, 0, 0, 0, 0 |];
